; benchmark generated from python API
(set-info :status unknown)
(declare-fun S_3 () Real)
(declare-fun L_3 () Real)
(declare-fun A_3 () Real)
(declare-fun A_4 () Real)
(declare-fun A_2 () Real)
(declare-fun A_1 () Real)
(declare-fun A_0 () Real)
(declare-fun S_4 () Real)
(declare-fun S_2 () Real)
(declare-fun S_1 () Real)
(declare-fun S_0 () Real)
(declare-fun L_4 () Real)
(declare-fun L_2 () Real)
(declare-fun L_1 () Real)
(declare-fun L_0 () Real)
(declare-fun a () Real)
(assert
 (exists ((I_0 Real) (I_1 Real) (I_2 Real) (I_3 Real) (I_4 Real) (C Real) (B Real) )(let ((?x95 (- A_3 L_3)))
 (let (($x123 (<= ?x95 S_3)))
 (let (($x122 (>= A_4 A_3)))
 (let (($x121 (>= A_3 A_2)))
 (let (($x120 (>= A_2 A_1)))
 (let (($x119 (>= A_1 A_0)))
 (let (($x117 (>= S_4 S_3)))
 (let (($x114 (>= S_3 S_2)))
 (let (($x111 (>= S_2 S_1)))
 (let (($x108 (>= S_1 S_0)))
 (let ((?x100 (- A_4 L_4)))
 (let ((?x141 (* C 1.0)))
 (let ((?x144 (+ I_3 ?x141)))
 (let ((?x90 (- A_2 L_2)))
 (let ((?x152 (+ I_1 ?x141)))
 (let ((?x85 (- A_1 L_1)))
 (let ((?x156 (+ I_0 ?x141)))
 (let (($x81 (= L_4 L_3)))
 (let (($x163 (=> (not (> (- (- A_4 L_3) I_4) B)) $x81)))
 (let (($x161 (> (- (- A_4 L_3) I_4) B)))
 (let (($x167 (=> $x161 (= L_4 (- (- A_4 I_4) B)))))
 (let (($x71 (= L_3 L_2)))
 (let (($x171 (=> (not (> (- (- A_3 L_2) I_3) B)) $x71)))
 (let (($x169 (> (- (- A_3 L_2) I_3) B)))
 (let (($x175 (=> $x169 (= L_3 (- (- A_3 I_3) B)))))
 (let (($x61 (= L_2 L_1)))
 (let (($x179 (=> (not (> (- (- A_2 L_1) I_2) B)) $x61)))
 (let (($x177 (> (- (- A_2 L_1) I_2) B)))
 (let (($x183 (=> $x177 (= L_2 (- (- A_2 I_2) B)))))
 (let (($x51 (= L_1 L_0)))
 (let (($x187 (=> (not (> (- (- A_1 L_0) I_1) B)) $x51)))
 (let (($x185 (> (- (- A_1 L_0) I_1) B)))
 (let (($x191 (=> $x185 (= L_1 (- (- A_1 I_1) B)))))
 (let (($x42 (= a 1.0)))
 (let (($x34 (>= L_0 0.0)))
 (and $x34 (<= I_0 (- A_0 L_0)) (>= C (* 5.0 a)) (>= B (* 5.0 a)) $x42 $x191 $x187 $x183 $x179 $x175 $x171 $x167 $x163 $x191 $x187 $x183 $x179 $x175 $x171 $x167 $x163 (= I_1 (ite (< ?x156 ?x85) ?x156 ?x85)) (= I_2 (ite (< ?x152 ?x90) ?x152 ?x90)) (= I_3 (ite (< (+ I_2 ?x141) ?x95) (+ I_2 ?x141) ?x95)) (= I_4 (ite (< ?x144 ?x100) ?x144 ?x100)) (>= S_0 (- I_0 ?x141)) (<= S_0 I_0) (>= S_1 I_0) $x108 (<= S_1 I_1) (>= S_2 I_1) $x111 (<= S_2 I_2) (>= S_3 I_2) $x114 (<= S_3 I_3) (>= S_4 I_3) $x117 (<= S_4 I_4) $x119 $x120 $x121 $x122 $x123)))))))))))))))))))))))))))))))))))))
 )
(check-sat)
